Minimize
 obj: 0 X_0_1
Subject To
 out_0:
  + 1 X_0_1 + 1 X_0_2 + 1 X_0_3 + 1 X_0_4 + 1 X_0_5 + 1 X_0_6 + 1 X_0_7 + 1 X_0_8
  + 1 X_0_9 + 1 X_0_10 + 1 X_0_11 + 1 X_0_12 + 1 X_0_13 + 1 X_0_14
  = 1
 in_0:
  + 1 X_1_0 + 1 X_2_0 + 1 X_3_0 + 1 X_4_0 + 1 X_5_0 + 1 X_6_0 + 1 X_7_0 + 1 X_8_0
  + 1 X_9_0 + 1 X_10_0 + 1 X_11_0 + 1 X_12_0 + 1 X_13_0 + 1 X_14_0
  = 1
 out_1:
  + 1 X_1_0 + 1 X_1_2 + 1 X_1_3 + 1 X_1_4 + 1 X_1_5 + 1 X_1_6 + 1 X_1_7 + 1 X_1_8
  + 1 X_1_9 + 1 X_1_10 + 1 X_1_11 + 1 X_1_12 + 1 X_1_13 + 1 X_1_14
  = 1
 in_1:
  + 1 X_0_1 + 1 X_2_1 + 1 X_3_1 + 1 X_4_1 + 1 X_5_1 + 1 X_6_1 + 1 X_7_1 + 1 X_8_1
  + 1 X_9_1 + 1 X_10_1 + 1 X_11_1 + 1 X_12_1 + 1 X_13_1 + 1 X_14_1
  = 1
 out_2:
  + 1 X_2_0 + 1 X_2_1 + 1 X_2_3 + 1 X_2_4 + 1 X_2_5 + 1 X_2_6 + 1 X_2_7 + 1 X_2_8
  + 1 X_2_9 + 1 X_2_10 + 1 X_2_11 + 1 X_2_12 + 1 X_2_13 + 1 X_2_14
  = 1
 in_2:
  + 1 X_0_2 + 1 X_1_2 + 1 X_3_2 + 1 X_4_2 + 1 X_5_2 + 1 X_6_2 + 1 X_7_2 + 1 X_8_2
  + 1 X_9_2 + 1 X_10_2 + 1 X_11_2 + 1 X_12_2 + 1 X_13_2 + 1 X_14_2
  = 1
 out_3:
  + 1 X_3_0 + 1 X_3_1 + 1 X_3_2 + 1 X_3_4 + 1 X_3_5 + 1 X_3_6 + 1 X_3_7 + 1 X_3_8
  + 1 X_3_9 + 1 X_3_10 + 1 X_3_11 + 1 X_3_12 + 1 X_3_13 + 1 X_3_14
  = 1
 in_3:
  + 1 X_0_3 + 1 X_1_3 + 1 X_2_3 + 1 X_4_3 + 1 X_5_3 + 1 X_6_3 + 1 X_7_3 + 1 X_8_3
  + 1 X_9_3 + 1 X_10_3 + 1 X_11_3 + 1 X_12_3 + 1 X_13_3 + 1 X_14_3
  = 1
 out_4:
  + 1 X_4_0 + 1 X_4_1 + 1 X_4_2 + 1 X_4_3 + 1 X_4_5 + 1 X_4_6 + 1 X_4_7 + 1 X_4_8
  + 1 X_4_9 + 1 X_4_10 + 1 X_4_11 + 1 X_4_12 + 1 X_4_13 + 1 X_4_14
  = 1
 in_4:
  + 1 X_0_4 + 1 X_1_4 + 1 X_2_4 + 1 X_3_4 + 1 X_5_4 + 1 X_6_4 + 1 X_7_4 + 1 X_8_4
  + 1 X_9_4 + 1 X_10_4 + 1 X_11_4 + 1 X_12_4 + 1 X_13_4 + 1 X_14_4
  = 1
 out_5:
  + 1 X_5_0 + 1 X_5_1 + 1 X_5_2 + 1 X_5_3 + 1 X_5_4 + 1 X_5_6 + 1 X_5_7 + 1 X_5_8
  + 1 X_5_9 + 1 X_5_10 + 1 X_5_11 + 1 X_5_12 + 1 X_5_13 + 1 X_5_14
  = 1
 in_5:
  + 1 X_0_5 + 1 X_1_5 + 1 X_2_5 + 1 X_3_5 + 1 X_4_5 + 1 X_6_5 + 1 X_7_5 + 1 X_8_5
  + 1 X_9_5 + 1 X_10_5 + 1 X_11_5 + 1 X_12_5 + 1 X_13_5 + 1 X_14_5
  = 1
 out_6:
  + 1 X_6_0 + 1 X_6_1 + 1 X_6_2 + 1 X_6_3 + 1 X_6_4 + 1 X_6_5 + 1 X_6_7 + 1 X_6_8
  + 1 X_6_9 + 1 X_6_10 + 1 X_6_11 + 1 X_6_12 + 1 X_6_13 + 1 X_6_14
  = 1
 in_6:
  + 1 X_0_6 + 1 X_1_6 + 1 X_2_6 + 1 X_3_6 + 1 X_4_6 + 1 X_5_6 + 1 X_7_6 + 1 X_8_6
  + 1 X_9_6 + 1 X_10_6 + 1 X_11_6 + 1 X_12_6 + 1 X_13_6 + 1 X_14_6
  = 1
 out_7:
  + 1 X_7_0 + 1 X_7_1 + 1 X_7_2 + 1 X_7_3 + 1 X_7_4 + 1 X_7_5 + 1 X_7_6 + 1 X_7_8
  + 1 X_7_9 + 1 X_7_10 + 1 X_7_11 + 1 X_7_12 + 1 X_7_13 + 1 X_7_14
  = 1
 in_7:
  + 1 X_0_7 + 1 X_1_7 + 1 X_2_7 + 1 X_3_7 + 1 X_4_7 + 1 X_5_7 + 1 X_6_7 + 1 X_8_7
  + 1 X_9_7 + 1 X_10_7 + 1 X_11_7 + 1 X_12_7 + 1 X_13_7 + 1 X_14_7
  = 1
 out_8:
  + 1 X_8_0 + 1 X_8_1 + 1 X_8_2 + 1 X_8_3 + 1 X_8_4 + 1 X_8_5 + 1 X_8_6 + 1 X_8_7
  + 1 X_8_9 + 1 X_8_10 + 1 X_8_11 + 1 X_8_12 + 1 X_8_13 + 1 X_8_14
  = 1
 in_8:
  + 1 X_0_8 + 1 X_1_8 + 1 X_2_8 + 1 X_3_8 + 1 X_4_8 + 1 X_5_8 + 1 X_6_8 + 1 X_7_8
  + 1 X_9_8 + 1 X_10_8 + 1 X_11_8 + 1 X_12_8 + 1 X_13_8 + 1 X_14_8
  = 1
 out_9:
  + 1 X_9_0 + 1 X_9_1 + 1 X_9_2 + 1 X_9_3 + 1 X_9_4 + 1 X_9_5 + 1 X_9_6 + 1 X_9_7
  + 1 X_9_8 + 1 X_9_10 + 1 X_9_11 + 1 X_9_12 + 1 X_9_13 + 1 X_9_14
  = 1
 in_9:
  + 1 X_0_9 + 1 X_1_9 + 1 X_2_9 + 1 X_3_9 + 1 X_4_9 + 1 X_5_9 + 1 X_6_9 + 1 X_7_9
  + 1 X_8_9 + 1 X_10_9 + 1 X_11_9 + 1 X_12_9 + 1 X_13_9 + 1 X_14_9
  = 1
 out_10:
  + 1 X_10_0 + 1 X_10_1 + 1 X_10_2 + 1 X_10_3 + 1 X_10_4 + 1 X_10_5 + 1 X_10_6 + 1 X_10_7
  + 1 X_10_8 + 1 X_10_9 + 1 X_10_11 + 1 X_10_12 + 1 X_10_13 + 1 X_10_14
  = 1
 in_10:
  + 1 X_0_10 + 1 X_1_10 + 1 X_2_10 + 1 X_3_10 + 1 X_4_10 + 1 X_5_10 + 1 X_6_10 + 1 X_7_10
  + 1 X_8_10 + 1 X_9_10 + 1 X_11_10 + 1 X_12_10 + 1 X_13_10 + 1 X_14_10
  = 1
 out_11:
  + 1 X_11_0 + 1 X_11_1 + 1 X_11_2 + 1 X_11_3 + 1 X_11_4 + 1 X_11_5 + 1 X_11_6 + 1 X_11_7
  + 1 X_11_8 + 1 X_11_9 + 1 X_11_10 + 1 X_11_12 + 1 X_11_13 + 1 X_11_14
  = 1
 in_11:
  + 1 X_0_11 + 1 X_1_11 + 1 X_2_11 + 1 X_3_11 + 1 X_4_11 + 1 X_5_11 + 1 X_6_11 + 1 X_7_11
  + 1 X_8_11 + 1 X_9_11 + 1 X_10_11 + 1 X_12_11 + 1 X_13_11 + 1 X_14_11
  = 1
 out_12:
  + 1 X_12_0 + 1 X_12_1 + 1 X_12_2 + 1 X_12_3 + 1 X_12_4 + 1 X_12_5 + 1 X_12_6 + 1 X_12_7
  + 1 X_12_8 + 1 X_12_9 + 1 X_12_10 + 1 X_12_11 + 1 X_12_13 + 1 X_12_14
  = 1
 in_12:
  + 1 X_0_12 + 1 X_1_12 + 1 X_2_12 + 1 X_3_12 + 1 X_4_12 + 1 X_5_12 + 1 X_6_12 + 1 X_7_12
  + 1 X_8_12 + 1 X_9_12 + 1 X_10_12 + 1 X_11_12 + 1 X_13_12 + 1 X_14_12
  = 1
 out_13:
  + 1 X_13_0 + 1 X_13_1 + 1 X_13_2 + 1 X_13_3 + 1 X_13_4 + 1 X_13_5 + 1 X_13_6 + 1 X_13_7
  + 1 X_13_8 + 1 X_13_9 + 1 X_13_10 + 1 X_13_11 + 1 X_13_12 + 1 X_13_14
  = 1
 in_13:
  + 1 X_0_13 + 1 X_1_13 + 1 X_2_13 + 1 X_3_13 + 1 X_4_13 + 1 X_5_13 + 1 X_6_13 + 1 X_7_13
  + 1 X_8_13 + 1 X_9_13 + 1 X_10_13 + 1 X_11_13 + 1 X_12_13 + 1 X_14_13
  = 1
 out_14:
  + 1 X_14_0 + 1 X_14_1 + 1 X_14_2 + 1 X_14_3 + 1 X_14_4 + 1 X_14_5 + 1 X_14_6 + 1 X_14_7
  + 1 X_14_8 + 1 X_14_9 + 1 X_14_10 + 1 X_14_11 + 1 X_14_12 + 1 X_14_13
  = 1
 in_14:
  + 1 X_0_14 + 1 X_1_14 + 1 X_2_14 + 1 X_3_14 + 1 X_4_14 + 1 X_5_14 + 1 X_6_14 + 1 X_7_14
  + 1 X_8_14 + 1 X_9_14 + 1 X_10_14 + 1 X_11_14 + 1 X_12_14 + 1 X_13_14
  = 1
 mtz_1_2:
  + 1 U1 - 1 U2 + 14 X_1_2
  <= 13
 mtz_1_3:
  + 1 U1 - 1 U3 + 14 X_1_3
  <= 13
 mtz_1_4:
  + 1 U1 - 1 U4 + 14 X_1_4
  <= 13
 mtz_1_5:
  + 1 U1 - 1 U5 + 14 X_1_5
  <= 13
 mtz_1_6:
  + 1 U1 - 1 U6 + 14 X_1_6
  <= 13
 mtz_1_7:
  + 1 U1 - 1 U7 + 14 X_1_7
  <= 13
 mtz_1_8:
  + 1 U1 - 1 U8 + 14 X_1_8
  <= 13
 mtz_1_9:
  + 1 U1 - 1 U9 + 14 X_1_9
  <= 13
 mtz_1_10:
  + 1 U1 - 1 U10 + 14 X_1_10
  <= 13
 mtz_1_11:
  + 1 U1 - 1 U11 + 14 X_1_11
  <= 13
 mtz_1_12:
  + 1 U1 - 1 U12 + 14 X_1_12
  <= 13
 mtz_1_13:
  + 1 U1 - 1 U13 + 14 X_1_13
  <= 13
 mtz_1_14:
  + 1 U1 - 1 U14 + 14 X_1_14
  <= 13
 mtz_2_1:
  + 1 U2 - 1 U1 + 14 X_2_1
  <= 13
 mtz_2_3:
  + 1 U2 - 1 U3 + 14 X_2_3
  <= 13
 mtz_2_4:
  + 1 U2 - 1 U4 + 14 X_2_4
  <= 13
 mtz_2_5:
  + 1 U2 - 1 U5 + 14 X_2_5
  <= 13
 mtz_2_6:
  + 1 U2 - 1 U6 + 14 X_2_6
  <= 13
 mtz_2_7:
  + 1 U2 - 1 U7 + 14 X_2_7
  <= 13
 mtz_2_8:
  + 1 U2 - 1 U8 + 14 X_2_8
  <= 13
 mtz_2_9:
  + 1 U2 - 1 U9 + 14 X_2_9
  <= 13
 mtz_2_10:
  + 1 U2 - 1 U10 + 14 X_2_10
  <= 13
 mtz_2_11:
  + 1 U2 - 1 U11 + 14 X_2_11
  <= 13
 mtz_2_12:
  + 1 U2 - 1 U12 + 14 X_2_12
  <= 13
 mtz_2_13:
  + 1 U2 - 1 U13 + 14 X_2_13
  <= 13
 mtz_2_14:
  + 1 U2 - 1 U14 + 14 X_2_14
  <= 13
 mtz_3_1:
  + 1 U3 - 1 U1 + 14 X_3_1
  <= 13
 mtz_3_2:
  + 1 U3 - 1 U2 + 14 X_3_2
  <= 13
 mtz_3_4:
  + 1 U3 - 1 U4 + 14 X_3_4
  <= 13
 mtz_3_5:
  + 1 U3 - 1 U5 + 14 X_3_5
  <= 13
 mtz_3_6:
  + 1 U3 - 1 U6 + 14 X_3_6
  <= 13
 mtz_3_7:
  + 1 U3 - 1 U7 + 14 X_3_7
  <= 13
 mtz_3_8:
  + 1 U3 - 1 U8 + 14 X_3_8
  <= 13
 mtz_3_9:
  + 1 U3 - 1 U9 + 14 X_3_9
  <= 13
 mtz_3_10:
  + 1 U3 - 1 U10 + 14 X_3_10
  <= 13
 mtz_3_11:
  + 1 U3 - 1 U11 + 14 X_3_11
  <= 13
 mtz_3_12:
  + 1 U3 - 1 U12 + 14 X_3_12
  <= 13
 mtz_3_13:
  + 1 U3 - 1 U13 + 14 X_3_13
  <= 13
 mtz_3_14:
  + 1 U3 - 1 U14 + 14 X_3_14
  <= 13
 mtz_4_1:
  + 1 U4 - 1 U1 + 14 X_4_1
  <= 13
 mtz_4_2:
  + 1 U4 - 1 U2 + 14 X_4_2
  <= 13
 mtz_4_3:
  + 1 U4 - 1 U3 + 14 X_4_3
  <= 13
 mtz_4_5:
  + 1 U4 - 1 U5 + 14 X_4_5
  <= 13
 mtz_4_6:
  + 1 U4 - 1 U6 + 14 X_4_6
  <= 13
 mtz_4_7:
  + 1 U4 - 1 U7 + 14 X_4_7
  <= 13
 mtz_4_8:
  + 1 U4 - 1 U8 + 14 X_4_8
  <= 13
 mtz_4_9:
  + 1 U4 - 1 U9 + 14 X_4_9
  <= 13
 mtz_4_10:
  + 1 U4 - 1 U10 + 14 X_4_10
  <= 13
 mtz_4_11:
  + 1 U4 - 1 U11 + 14 X_4_11
  <= 13
 mtz_4_12:
  + 1 U4 - 1 U12 + 14 X_4_12
  <= 13
 mtz_4_13:
  + 1 U4 - 1 U13 + 14 X_4_13
  <= 13
 mtz_4_14:
  + 1 U4 - 1 U14 + 14 X_4_14
  <= 13
 mtz_5_1:
  + 1 U5 - 1 U1 + 14 X_5_1
  <= 13
 mtz_5_2:
  + 1 U5 - 1 U2 + 14 X_5_2
  <= 13
 mtz_5_3:
  + 1 U5 - 1 U3 + 14 X_5_3
  <= 13
 mtz_5_4:
  + 1 U5 - 1 U4 + 14 X_5_4
  <= 13
 mtz_5_6:
  + 1 U5 - 1 U6 + 14 X_5_6
  <= 13
 mtz_5_7:
  + 1 U5 - 1 U7 + 14 X_5_7
  <= 13
 mtz_5_8:
  + 1 U5 - 1 U8 + 14 X_5_8
  <= 13
 mtz_5_9:
  + 1 U5 - 1 U9 + 14 X_5_9
  <= 13
 mtz_5_10:
  + 1 U5 - 1 U10 + 14 X_5_10
  <= 13
 mtz_5_11:
  + 1 U5 - 1 U11 + 14 X_5_11
  <= 13
 mtz_5_12:
  + 1 U5 - 1 U12 + 14 X_5_12
  <= 13
 mtz_5_13:
  + 1 U5 - 1 U13 + 14 X_5_13
  <= 13
 mtz_5_14:
  + 1 U5 - 1 U14 + 14 X_5_14
  <= 13
 mtz_6_1:
  + 1 U6 - 1 U1 + 14 X_6_1
  <= 13
 mtz_6_2:
  + 1 U6 - 1 U2 + 14 X_6_2
  <= 13
 mtz_6_3:
  + 1 U6 - 1 U3 + 14 X_6_3
  <= 13
 mtz_6_4:
  + 1 U6 - 1 U4 + 14 X_6_4
  <= 13
 mtz_6_5:
  + 1 U6 - 1 U5 + 14 X_6_5
  <= 13
 mtz_6_7:
  + 1 U6 - 1 U7 + 14 X_6_7
  <= 13
 mtz_6_8:
  + 1 U6 - 1 U8 + 14 X_6_8
  <= 13
 mtz_6_9:
  + 1 U6 - 1 U9 + 14 X_6_9
  <= 13
 mtz_6_10:
  + 1 U6 - 1 U10 + 14 X_6_10
  <= 13
 mtz_6_11:
  + 1 U6 - 1 U11 + 14 X_6_11
  <= 13
 mtz_6_12:
  + 1 U6 - 1 U12 + 14 X_6_12
  <= 13
 mtz_6_13:
  + 1 U6 - 1 U13 + 14 X_6_13
  <= 13
 mtz_6_14:
  + 1 U6 - 1 U14 + 14 X_6_14
  <= 13
 mtz_7_1:
  + 1 U7 - 1 U1 + 14 X_7_1
  <= 13
 mtz_7_2:
  + 1 U7 - 1 U2 + 14 X_7_2
  <= 13
 mtz_7_3:
  + 1 U7 - 1 U3 + 14 X_7_3
  <= 13
 mtz_7_4:
  + 1 U7 - 1 U4 + 14 X_7_4
  <= 13
 mtz_7_5:
  + 1 U7 - 1 U5 + 14 X_7_5
  <= 13
 mtz_7_6:
  + 1 U7 - 1 U6 + 14 X_7_6
  <= 13
 mtz_7_8:
  + 1 U7 - 1 U8 + 14 X_7_8
  <= 13
 mtz_7_9:
  + 1 U7 - 1 U9 + 14 X_7_9
  <= 13
 mtz_7_10:
  + 1 U7 - 1 U10 + 14 X_7_10
  <= 13
 mtz_7_11:
  + 1 U7 - 1 U11 + 14 X_7_11
  <= 13
 mtz_7_12:
  + 1 U7 - 1 U12 + 14 X_7_12
  <= 13
 mtz_7_13:
  + 1 U7 - 1 U13 + 14 X_7_13
  <= 13
 mtz_7_14:
  + 1 U7 - 1 U14 + 14 X_7_14
  <= 13
 mtz_8_1:
  + 1 U8 - 1 U1 + 14 X_8_1
  <= 13
 mtz_8_2:
  + 1 U8 - 1 U2 + 14 X_8_2
  <= 13
 mtz_8_3:
  + 1 U8 - 1 U3 + 14 X_8_3
  <= 13
 mtz_8_4:
  + 1 U8 - 1 U4 + 14 X_8_4
  <= 13
 mtz_8_5:
  + 1 U8 - 1 U5 + 14 X_8_5
  <= 13
 mtz_8_6:
  + 1 U8 - 1 U6 + 14 X_8_6
  <= 13
 mtz_8_7:
  + 1 U8 - 1 U7 + 14 X_8_7
  <= 13
 mtz_8_9:
  + 1 U8 - 1 U9 + 14 X_8_9
  <= 13
 mtz_8_10:
  + 1 U8 - 1 U10 + 14 X_8_10
  <= 13
 mtz_8_11:
  + 1 U8 - 1 U11 + 14 X_8_11
  <= 13
 mtz_8_12:
  + 1 U8 - 1 U12 + 14 X_8_12
  <= 13
 mtz_8_13:
  + 1 U8 - 1 U13 + 14 X_8_13
  <= 13
 mtz_8_14:
  + 1 U8 - 1 U14 + 14 X_8_14
  <= 13
 mtz_9_1:
  + 1 U9 - 1 U1 + 14 X_9_1
  <= 13
 mtz_9_2:
  + 1 U9 - 1 U2 + 14 X_9_2
  <= 13
 mtz_9_3:
  + 1 U9 - 1 U3 + 14 X_9_3
  <= 13
 mtz_9_4:
  + 1 U9 - 1 U4 + 14 X_9_4
  <= 13
 mtz_9_5:
  + 1 U9 - 1 U5 + 14 X_9_5
  <= 13
 mtz_9_6:
  + 1 U9 - 1 U6 + 14 X_9_6
  <= 13
 mtz_9_7:
  + 1 U9 - 1 U7 + 14 X_9_7
  <= 13
 mtz_9_8:
  + 1 U9 - 1 U8 + 14 X_9_8
  <= 13
 mtz_9_10:
  + 1 U9 - 1 U10 + 14 X_9_10
  <= 13
 mtz_9_11:
  + 1 U9 - 1 U11 + 14 X_9_11
  <= 13
 mtz_9_12:
  + 1 U9 - 1 U12 + 14 X_9_12
  <= 13
 mtz_9_13:
  + 1 U9 - 1 U13 + 14 X_9_13
  <= 13
 mtz_9_14:
  + 1 U9 - 1 U14 + 14 X_9_14
  <= 13
 mtz_10_1:
  + 1 U10 - 1 U1 + 14 X_10_1
  <= 13
 mtz_10_2:
  + 1 U10 - 1 U2 + 14 X_10_2
  <= 13
 mtz_10_3:
  + 1 U10 - 1 U3 + 14 X_10_3
  <= 13
 mtz_10_4:
  + 1 U10 - 1 U4 + 14 X_10_4
  <= 13
 mtz_10_5:
  + 1 U10 - 1 U5 + 14 X_10_5
  <= 13
 mtz_10_6:
  + 1 U10 - 1 U6 + 14 X_10_6
  <= 13
 mtz_10_7:
  + 1 U10 - 1 U7 + 14 X_10_7
  <= 13
 mtz_10_8:
  + 1 U10 - 1 U8 + 14 X_10_8
  <= 13
 mtz_10_9:
  + 1 U10 - 1 U9 + 14 X_10_9
  <= 13
 mtz_10_11:
  + 1 U10 - 1 U11 + 14 X_10_11
  <= 13
 mtz_10_12:
  + 1 U10 - 1 U12 + 14 X_10_12
  <= 13
 mtz_10_13:
  + 1 U10 - 1 U13 + 14 X_10_13
  <= 13
 mtz_10_14:
  + 1 U10 - 1 U14 + 14 X_10_14
  <= 13
 mtz_11_1:
  + 1 U11 - 1 U1 + 14 X_11_1
  <= 13
 mtz_11_2:
  + 1 U11 - 1 U2 + 14 X_11_2
  <= 13
 mtz_11_3:
  + 1 U11 - 1 U3 + 14 X_11_3
  <= 13
 mtz_11_4:
  + 1 U11 - 1 U4 + 14 X_11_4
  <= 13
 mtz_11_5:
  + 1 U11 - 1 U5 + 14 X_11_5
  <= 13
 mtz_11_6:
  + 1 U11 - 1 U6 + 14 X_11_6
  <= 13
 mtz_11_7:
  + 1 U11 - 1 U7 + 14 X_11_7
  <= 13
 mtz_11_8:
  + 1 U11 - 1 U8 + 14 X_11_8
  <= 13
 mtz_11_9:
  + 1 U11 - 1 U9 + 14 X_11_9
  <= 13
 mtz_11_10:
  + 1 U11 - 1 U10 + 14 X_11_10
  <= 13
 mtz_11_12:
  + 1 U11 - 1 U12 + 14 X_11_12
  <= 13
 mtz_11_13:
  + 1 U11 - 1 U13 + 14 X_11_13
  <= 13
 mtz_11_14:
  + 1 U11 - 1 U14 + 14 X_11_14
  <= 13
 mtz_12_1:
  + 1 U12 - 1 U1 + 14 X_12_1
  <= 13
 mtz_12_2:
  + 1 U12 - 1 U2 + 14 X_12_2
  <= 13
 mtz_12_3:
  + 1 U12 - 1 U3 + 14 X_12_3
  <= 13
 mtz_12_4:
  + 1 U12 - 1 U4 + 14 X_12_4
  <= 13
 mtz_12_5:
  + 1 U12 - 1 U5 + 14 X_12_5
  <= 13
 mtz_12_6:
  + 1 U12 - 1 U6 + 14 X_12_6
  <= 13
 mtz_12_7:
  + 1 U12 - 1 U7 + 14 X_12_7
  <= 13
 mtz_12_8:
  + 1 U12 - 1 U8 + 14 X_12_8
  <= 13
 mtz_12_9:
  + 1 U12 - 1 U9 + 14 X_12_9
  <= 13
 mtz_12_10:
  + 1 U12 - 1 U10 + 14 X_12_10
  <= 13
 mtz_12_11:
  + 1 U12 - 1 U11 + 14 X_12_11
  <= 13
 mtz_12_13:
  + 1 U12 - 1 U13 + 14 X_12_13
  <= 13
 mtz_12_14:
  + 1 U12 - 1 U14 + 14 X_12_14
  <= 13
 mtz_13_1:
  + 1 U13 - 1 U1 + 14 X_13_1
  <= 13
 mtz_13_2:
  + 1 U13 - 1 U2 + 14 X_13_2
  <= 13
 mtz_13_3:
  + 1 U13 - 1 U3 + 14 X_13_3
  <= 13
 mtz_13_4:
  + 1 U13 - 1 U4 + 14 X_13_4
  <= 13
 mtz_13_5:
  + 1 U13 - 1 U5 + 14 X_13_5
  <= 13
 mtz_13_6:
  + 1 U13 - 1 U6 + 14 X_13_6
  <= 13
 mtz_13_7:
  + 1 U13 - 1 U7 + 14 X_13_7
  <= 13
 mtz_13_8:
  + 1 U13 - 1 U8 + 14 X_13_8
  <= 13
 mtz_13_9:
  + 1 U13 - 1 U9 + 14 X_13_9
  <= 13
 mtz_13_10:
  + 1 U13 - 1 U10 + 14 X_13_10
  <= 13
 mtz_13_11:
  + 1 U13 - 1 U11 + 14 X_13_11
  <= 13
 mtz_13_12:
  + 1 U13 - 1 U12 + 14 X_13_12
  <= 13
 mtz_13_14:
  + 1 U13 - 1 U14 + 14 X_13_14
  <= 13
 mtz_14_1:
  + 1 U14 - 1 U1 + 14 X_14_1
  <= 13
 mtz_14_2:
  + 1 U14 - 1 U2 + 14 X_14_2
  <= 13
 mtz_14_3:
  + 1 U14 - 1 U3 + 14 X_14_3
  <= 13
 mtz_14_4:
  + 1 U14 - 1 U4 + 14 X_14_4
  <= 13
 mtz_14_5:
  + 1 U14 - 1 U5 + 14 X_14_5
  <= 13
 mtz_14_6:
  + 1 U14 - 1 U6 + 14 X_14_6
  <= 13
 mtz_14_7:
  + 1 U14 - 1 U7 + 14 X_14_7
  <= 13
 mtz_14_8:
  + 1 U14 - 1 U8 + 14 X_14_8
  <= 13
 mtz_14_9:
  + 1 U14 - 1 U9 + 14 X_14_9
  <= 13
 mtz_14_10:
  + 1 U14 - 1 U10 + 14 X_14_10
  <= 13
 mtz_14_11:
  + 1 U14 - 1 U11 + 14 X_14_11
  <= 13
 mtz_14_12:
  + 1 U14 - 1 U12 + 14 X_14_12
  <= 13
 mtz_14_13:
  + 1 U14 - 1 U13 + 14 X_14_13
  <= 13
 obj1:
  + 281 X_0_1 + 664 X_0_2 + 494 X_0_3 + 32 X_0_4 + 518 X_0_5 + 582 X_0_6 + 413 X_0_7 + 811 X_0_8
  + 296 X_0_9 + 769 X_0_10 + 723 X_0_11 + 718 X_0_12 + 248 X_0_13 + 658 X_0_14 + 281 X_1_0 + 394 X_1_2
  + 309 X_1_3 + 283 X_1_4 + 625 X_1_5 + 374 X_1_6 + 139 X_1_7 + 549 X_1_8 + 483 X_1_9 + 493 X_1_10
  + 455 X_1_11 + 575 X_1_12 + 437 X_1_13 + 377 X_1_14 + 664 X_2_0 + 394 X_2_1 + 287 X_2_3 + 672 X_2_4
  + 818 X_2_5 + 231 X_2_6 + 254 X_2_7 + 162 X_2_8 + 781 X_2_9 + 276 X_2_10 + 62 X_2_11 + 446 X_2_12
  + 746 X_2_13 + 158 X_2_14 + 494 X_3_0 + 309 X_3_1 + 287 X_3_2 + 513 X_3_4 + 532 X_3_5 + 93 X_3_6
  + 229 X_3_7 + 372 X_3_8 + 523 X_3_9 + 536 X_3_10 + 320 X_3_11 + 268 X_3_12 + 497 X_3_13 + 396 X_3_14
  + 32 X_4_0 + 283 X_4_1 + 672 X_4_2 + 513 X_4_3 + 550 X_4_5 + 600 X_4_6 + 419 X_4_7 + 822 X_4_8
  + 325 X_4_9 + 765 X_4_10 + 732 X_4_11 + 743 X_4_12 + 278 X_4_13 + 658 X_4_14 + 518 X_5_0 + 625 X_5_1
  + 818 X_5_2 + 532 X_5_3 + 550 X_5_4 + 606 X_5_6 + 667 X_5_7 + 892 X_5_8 + 245 X_5_9 + 1047 X_5_10
  + 851 X_5_11 + 545 X_5_12 + 282 X_5_13 + 907 X_5_14 + 582 X_6_0 + 374 X_6_1 + 231 X_6_2 + 93 X_6_3
  + 600 X_6_4 + 606 X_6_5 + 266 X_6_7 + 286 X_6_8 + 615 X_6_9 + 500 X_6_10 + 249 X_6_11 + 238 X_6_12
  + 590 X_6_13 + 367 X_6_14 + 413 X_7_0 + 139 X_7_1 + 254 X_7_2 + 229 X_7_3 + 419 X_7_4 + 667 X_7_5
  + 266 X_7_6 + 410 X_7_8 + 571 X_7_9 + 390 X_7_10 + 315 X_7_11 + 493 X_7_12 + 530 X_7_13 + 259 X_7_14
  + 811 X_8_0 + 549 X_8_1 + 162 X_8_2 + 372 X_8_3 + 822 X_8_4 + 892 X_8_5 + 286 X_8_6 + 410 X_8_7
  + 894 X_8_9 + 360 X_8_10 + 101 X_8_11 + 429 X_8_12 + 864 X_8_13 + 288 X_8_14 + 296 X_9_0 + 483 X_9_1
  + 781 X_9_2 + 523 X_9_3 + 325 X_9_4 + 245 X_9_5 + 615 X_9_6 + 571 X_9_7 + 894 X_9_8 + 961 X_9_10
  + 828 X_9_11 + 648 X_9_12 + 49 X_9_13 + 830 X_9_14 + 769 X_10_0 + 493 X_10_1 + 276 X_10_2 + 536 X_10_3
  + 765 X_10_4 + 1047 X_10_5 + 500 X_10_6 + 390 X_10_7 + 360 X_10_8 + 961 X_10_9 + 293 X_10_11 + 722 X_10_12
  + 919 X_10_13 + 140 X_10_14 + 723 X_11_0 + 455 X_11_1 + 62 X_11_2 + 320 X_11_3 + 732 X_11_4 + 851 X_11_5
  + 249 X_11_6 + 315 X_11_7 + 101 X_11_8 + 828 X_11_9 + 293 X_11_10 + 441 X_11_12 + 796 X_11_13 + 197 X_11_14
  + 718 X_12_0 + 575 X_12_1 + 446 X_12_2 + 268 X_12_3 + 743 X_12_4 + 545 X_12_5 + 238 X_12_6 + 493 X_12_7
  + 429 X_12_8 + 648 X_12_9 + 722 X_12_10 + 441 X_12_11 + 640 X_12_13 + 596 X_12_14 + 248 X_13_0 + 437 X_13_1
  + 746 X_13_2 + 497 X_13_3 + 278 X_13_4 + 282 X_13_5 + 590 X_13_6 + 530 X_13_7 + 864 X_13_8 + 49 X_13_9
  + 919 X_13_10 + 796 X_13_11 + 640 X_13_12 + 789 X_13_14 + 658 X_14_0 + 377 X_14_1 + 158 X_14_2 + 396 X_14_3
  + 658 X_14_4 + 907 X_14_5 + 367 X_14_6 + 259 X_14_7 + 288 X_14_8 + 830 X_14_9 + 140 X_14_10 + 197 X_14_11
  + 596 X_14_12 + 789 X_14_13
  <= 1
 obj2:
  + 504 X_0_1 + 621 X_0_2 + 490 X_0_3 + 444 X_0_4 + 916 X_0_5 + 663 X_0_6 + 237 X_0_7 + 400 X_0_8
  + 210 X_0_9 + 270 X_0_10 + 537 X_0_11 + 829 X_0_12 + 202 X_0_13 + 119 X_0_14 + 504 X_1_0 + 243 X_1_2
  + 666 X_1_3 + 327 X_1_4 + 434 X_1_5 + 681 X_1_6 + 548 X_1_7 + 180 X_1_8 + 466 X_1_9 + 325 X_1_10
  + 737 X_1_11 + 332 X_1_12 + 481 X_1_13 + 466 X_1_14 + 621 X_2_0 + 243 X_2_1 + 584 X_2_3 + 240 X_2_4
  + 323 X_2_5 + 524 X_2_6 + 566 X_2_7 + 221 X_2_8 + 654 X_2_9 + 528 X_2_10 + 653 X_2_11 + 403 X_2_12
  + 666 X_2_13 + 540 X_2_14 + 490 X_3_0 + 666 X_3_1 + 584 X_3_2 + 355 X_3_4 + 898 X_3_5 + 222 X_3_6
  + 254 X_3_7 + 486 X_3_8 + 683 X_3_9 + 667 X_3_10 + 71 X_3_11 + 964 X_3_12 + 680 X_3_13 + 380 X_3_14
  + 444 X_4_0 + 327 X_4_1 + 240 X_4_2 + 355 X_4_3 + 564 X_4_5 + 357 X_4_6 + 334 X_4_7 + 159 X_4_8
  + 545 X_4_9 + 458 X_4_10 + 425 X_4_11 + 609 X_4_12 + 552 X_4_13 + 339 X_4_14 + 916 X_5_0 + 434 X_5_1
  + 323 X_5_2 + 898 X_5_3 + 564 X_5_4 + 799 X_5_6 + 888 X_5_7 + 520 X_5_8 + 900 X_5_9 + 759 X_5_10
  + 964 X_5_11 + 281 X_5_12 + 916 X_5_13 + 849 X_5_14 + 663 X_6_0 + 681 X_6_1 + 524 X_6_2 + 222 X_6_3
  + 357 X_6_4 + 799 X_6_5 + 442 X_6_7 + 516 X_6_8 + 830 X_6_9 + 780 X_6_10 + 243 X_6_11 + 927 X_6_12
  + 831 X_6_13 + 544 X_6_14 + 237 X_7_0 + 548 X_7_1 + 566 X_7_2 + 254 X_7_3 + 334 X_7_4 + 888 X_7_5
  + 442 X_7_6 + 384 X_7_8 + 437 X_7_9 + 447 X_7_10 + 300 X_7_11 + 876 X_7_12 + 432 X_7_13 + 135 X_7_14
  + 400 X_8_0 + 180 X_8_1 + 221 X_8_2 + 486 X_8_3 + 159 X_8_4 + 520 X_8_5 + 516 X_8_6 + 384 X_8_7
  + 441 X_8_9 + 328 X_8_10 + 557 X_8_11 + 495 X_8_12 + 451 X_8_13 + 329 X_8_14 + 210 X_9_0 + 466 X_9_1
  + 654 X_9_2 + 683 X_9_3 + 545 X_9_4 + 900 X_9_5 + 830 X_9_6 + 437 X_9_7 + 441 X_9_8 + 144 X_9_10
  + 736 X_9_11 + 752 X_9_12 + 18 X_9_13 + 303 X_9_14 + 270 X_10_0 + 325 X_10_1 + 528 X_10_2 + 667 X_10_3
  + 458 X_10_4 + 759 X_10_5 + 780 X_10_6 + 447 X_10_7 + 328 X_10_8 + 144 X_10_9 + 729 X_10_11 + 609 X_10_12
  + 161 X_10_13 + 314 X_10_14 + 537 X_11_0 + 737 X_11_1 + 653 X_11_2 + 71 X_11_3 + 425 X_11_4 + 964 X_11_5
  + 243 X_11_6 + 300 X_11_7 + 557 X_11_8 + 736 X_11_9 + 729 X_11_10 + 1034 X_11_12 + 732 X_11_13 + 432 X_11_14
  + 829 X_12_0 + 332 X_12_1 + 403 X_12_2 + 964 X_12_3 + 609 X_12_4 + 281 X_12_5 + 927 X_12_6 + 876 X_12_7
  + 495 X_12_8 + 752 X_12_9 + 609 X_12_10 + 1034 X_12_11 + 769 X_12_13 + 798 X_12_14 + 202 X_13_0 + 481 X_13_1
  + 666 X_13_2 + 680 X_13_3 + 552 X_13_4 + 916 X_13_5 + 831 X_13_6 + 432 X_13_7 + 451 X_13_8 + 18 X_13_9
  + 161 X_13_10 + 732 X_13_11 + 769 X_13_12 + 300 X_13_14 + 119 X_14_0 + 466 X_14_1 + 540 X_14_2 + 380 X_14_3
  + 339 X_14_4 + 849 X_14_5 + 544 X_14_6 + 135 X_14_7 + 329 X_14_8 + 303 X_14_9 + 314 X_14_10 + 432 X_14_11
  + 798 X_14_12 + 300 X_14_13
  <= 2
 obj3:
  + 195 X_0_1 + 332 X_0_2 + 754 X_0_3 + 127 X_0_4 + 171 X_0_5 + 494 X_0_6 + 628 X_0_7 + 269 X_0_8
  + 374 X_0_9 + 267 X_0_10 + 482 X_0_11 + 688 X_0_12 + 690 X_0_13 + 596 X_0_14 + 195 X_1_0 + 516 X_1_2
  + 617 X_1_3 + 218 X_1_4 + 366 X_1_5 + 362 X_1_6 + 542 X_1_7 + 266 X_1_8 + 185 X_1_9 + 231 X_1_10
  + 464 X_1_11 + 492 X_1_12 + 698 X_1_13 + 406 X_1_14 + 332 X_2_0 + 516 X_2_1 + 1078 X_2_3 + 319 X_2_4
  + 199 X_2_5 + 709 X_2_6 + 930 X_2_7 + 560 X_2_8 + 701 X_2_9 + 574 X_2_10 + 745 X_2_11 + 1002 X_2_12
  + 904 X_2_13 + 886 X_2_14 + 754 X_3_0 + 617 X_3_1 + 1078 X_3_2 + 829 X_3_4 + 885 X_3_5 + 814 X_3_6
  + 223 X_3_7 + 531 X_3_8 + 469 X_3_9 + 506 X_3_10 + 438 X_3_11 + 479 X_3_12 + 550 X_3_13 + 603 X_3_14
  + 127 X_4_0 + 218 X_4_1 + 319 X_4_2 + 829 X_4_3 + 233 X_4_5 + 411 X_4_6 + 728 X_4_7 + 385 X_4_8
  + 400 X_4_9 + 374 X_4_10 + 600 X_4_11 + 686 X_4_12 + 815 X_4_13 + 567 X_4_14 + 171 X_5_0 + 366 X_5_1
  + 199 X_5_2 + 885 X_5_3 + 233 X_5_4 + 643 X_5_6 + 731 X_5_7 + 361 X_5_8 + 542 X_5_9 + 379 X_5_10
  + 546 X_5_11 + 859 X_5_12 + 715 X_5_13 + 766 X_5_14 + 494 X_6_0 + 362 X_6_1 + 709 X_6_2 + 814 X_6_3
  + 411 X_6_4 + 643 X_6_5 + 825 X_6_7 + 625 X_6_8 + 371 X_6_9 + 586 X_6_10 + 807 X_6_11 + 442 X_6_12
  + 1044 X_6_13 + 272 X_6_14 + 628 X_7_0 + 542 X_7_1 + 930 X_7_2 + 223 X_7_3 + 728 X_7_4 + 731 X_7_5
  + 825 X_7_6 + 370 X_7_8 + 454 X_7_9 + 362 X_7_10 + 224 X_7_11 + 599 X_7_12 + 336 X_7_13 + 676 X_7_14
  + 269 X_8_0 + 266 X_8_1 + 560 X_8_2 + 531 X_8_3 + 385 X_8_4 + 361 X_8_5 + 625 X_8_6 + 370 X_8_7
  + 325 X_8_9 + 47 X_8_10 + 215 X_8_11 + 630 X_8_12 + 438 X_8_13 + 607 X_8_14 + 374 X_9_0 + 185 X_9_1
  + 701 X_9_2 + 469 X_9_3 + 400 X_9_4 + 542 X_9_5 + 371 X_9_6 + 454 X_9_7 + 325 X_9_8 + 278 X_9_10
  + 459 X_9_11 + 322 X_9_12 + 692 X_9_13 + 282 X_9_14 + 267 X_10_0 + 231 X_10_1 + 574 X_10_2 + 506 X_10_3
  + 374 X_10_4 + 379 X_10_5 + 586 X_10_6 + 362 X_10_7 + 47 X_10_8 + 278 X_10_9 + 235 X_10_11 + 583 X_10_12
  + 467 X_10_13 + 560 X_10_14 + 482 X_11_0 + 464 X_11_1 + 745 X_11_2 + 438 X_11_3 + 600 X_11_4 + 546 X_11_5
  + 807 X_11_6 + 224 X_11_7 + 215 X_11_8 + 459 X_11_9 + 235 X_11_10 + 705 X_11_12 + 236 X_11_13 + 731 X_11_14
  + 688 X_12_0 + 492 X_12_1 + 1002 X_12_2 + 479 X_12_3 + 686 X_12_4 + 859 X_12_5 + 442 X_12_6 + 599 X_12_7
  + 630 X_12_8 + 322 X_12_9 + 583 X_12_10 + 705 X_12_11 + 913 X_12_13 + 171 X_12_14 + 690 X_13_0 + 698 X_13_1
  + 904 X_13_2 + 550 X_13_3 + 815 X_13_4 + 715 X_13_5 + 1044 X_13_6 + 336 X_13_7 + 438 X_13_8 + 692 X_13_9
  + 467 X_13_10 + 236 X_13_11 + 913 X_13_12 + 958 X_13_14 + 596 X_14_0 + 406 X_14_1 + 886 X_14_2 + 603 X_14_3
  + 567 X_14_4 + 766 X_14_5 + 272 X_14_6 + 676 X_14_7 + 607 X_14_8 + 282 X_14_9 + 560 X_14_10 + 731 X_14_11
  + 171 X_14_12 + 958 X_14_13
  <= 3
 obj4:
  + 244 X_0_1 + 374 X_0_2 + 601 X_0_3 + 272 X_0_4 + 291 X_0_5 + 315 X_0_6 + 797 X_0_7 + 100 X_0_8
  + 425 X_0_9 + 412 X_0_10 + 506 X_0_11 + 211 X_0_12 + 187 X_0_13 + 253 X_0_14 + 244 X_1_0 + 556 X_1_2
  + 691 X_1_3 + 496 X_1_4 + 427 X_1_5 + 410 X_1_6 + 1038 X_1_7 + 241 X_1_8 + 539 X_1_9 + 614 X_1_10
  + 742 X_1_11 + 219 X_1_12 + 428 X_1_13 + 216 X_1_14 + 374 X_2_0 + 556 X_2_1 + 311 X_2_3 + 443 X_2_4
  + 147 X_2_5 + 205 X_2_6 + 582 X_2_7 + 320 X_2_8 + 722 X_2_9 + 79 X_2_10 + 523 X_2_11 + 584 X_2_12
  + 352 X_2_13 + 395 X_2_14 + 601 X_3_0 + 691 X_3_1 + 311 X_3_2 + 743 X_3_4 + 312 X_3_5 + 291 X_3_6
  + 807 X_3_7 + 511 X_3_8 + 1003 X_3_9 + 361 X_3_10 + 832 X_3_11 + 801 X_3_12 + 644 X_3_13 + 477 X_3_14
  + 272 X_4_0 + 496 X_4_1 + 443 X_4_2 + 743 X_4_3 + 450 X_4_5 + 505 X_4_6 + 622 X_4_7 + 350 X_4_8
  + 298 X_4_9 + 431 X_4_10 + 251 X_4_11 + 347 X_4_12 + 105 X_4_13 + 517 X_4_14 + 291 X_5_0 + 427 X_5_1
  + 147 X_5_2 + 312 X_5_3 + 450 X_5_4 + 68 X_5_6 + 720 X_5_7 + 209 X_5_8 + 693 X_5_9 + 223 X_5_10
  + 594 X_5_11 + 496 X_5_12 + 346 X_5_13 + 249 X_5_14 + 315 X_6_0 + 410 X_6_1 + 205 X_6_2 + 291 X_6_3
  + 505 X_6_4 + 68 X_6_5 + 784 X_6_7 + 221 X_6_8 + 732 X_6_9 + 284 X_6_10 + 659 X_6_11 + 509 X_6_12
  + 399 X_6_13 + 212 X_6_14 + 797 X_7_0 + 1038 X_7_1 + 582 X_7_2 + 807 X_7_3 + 622 X_7_4 + 720 X_7_5
  + 784 X_7_6 + 809 X_7_8 + 877 X_7_9 + 503 X_7_10 + 423 X_7_11 + 953 X_7_12 + 633 X_7_13 + 944 X_7_14
  + 100 X_8_0 + 241 X_8_1 + 320 X_8_2 + 511 X_8_3 + 350 X_8_4 + 209 X_8_5 + 221 X_8_6 + 809 X_8_7
  + 526 X_8_9 + 374 X_8_10 + 565 X_8_11 + 289 X_8_12 + 252 X_8_13 + 167 X_8_14 + 425 X_9_0 + 539 X_9_1
  + 722 X_9_2 + 1003 X_9_3 + 298 X_9_4 + 693 X_9_5 + 732 X_9_6 + 877 X_9_7 + 526 X_9_8 + 722 X_9_10
  + 457 X_9_11 + 321 X_9_12 + 370 X_9_13 + 664 X_9_14 + 412 X_10_0 + 614 X_10_1 + 79 X_10_2 + 361 X_10_3
  + 431 X_10_4 + 223 X_10_5 + 284 X_10_6 + 503 X_10_7 + 374 X_10_8 + 722 X_10_9 + 473 X_10_11 + 619 X_10_12
  + 353 X_10_13 + 467 X_10_14 + 506 X_11_0 + 742 X_11_1 + 523 X_11_2 + 832 X_11_3 + 251 X_11_4 + 594 X_11_5
  + 659 X_11_6 + 423 X_11_7 + 565 X_11_8 + 457 X_11_9 + 473 X_11_10 + 596 X_11_12 + 319 X_11_13 + 731 X_11_14
  + 211 X_12_0 + 219 X_12_1 + 584 X_12_2 + 801 X_12_3 + 347 X_12_4 + 496 X_12_5 + 509 X_12_6 + 953 X_12_7
  + 289 X_12_8 + 321 X_12_9 + 619 X_12_10 + 596 X_12_11 + 321 X_12_13 + 377 X_12_14 + 187 X_13_0 + 428 X_13_1
  + 352 X_13_2 + 644 X_13_3 + 105 X_13_4 + 346 X_13_5 + 399 X_13_6 + 633 X_13_7 + 252 X_13_8 + 370 X_13_9
  + 353 X_13_10 + 319 X_13_11 + 321 X_13_12 + 420 X_13_14 + 253 X_14_0 + 216 X_14_1 + 395 X_14_2 + 477 X_14_3
  + 517 X_14_4 + 249 X_14_5 + 212 X_14_6 + 944 X_14_7 + 167 X_14_8 + 664 X_14_9 + 467 X_14_10 + 731 X_14_11
  + 377 X_14_12 + 420 X_14_13
  <= 4
 obj5:
  + 152 X_0_1 + 469 X_0_2 + 678 X_0_3 + 612 X_0_4 + 600 X_0_5 + 281 X_0_6 + 474 X_0_7 + 197 X_0_8
  + 261 X_0_9 + 437 X_0_10 + 158 X_0_11 + 381 X_0_12 + 444 X_0_13 + 509 X_0_14 + 152 X_1_0 + 344 X_1_2
  + 528 X_1_3 + 466 X_1_4 + 566 X_1_5 + 401 X_1_6 + 407 X_1_7 + 293 X_1_8 + 414 X_1_9 + 287 X_1_10
  + 92 X_1_11 + 533 X_1_12 + 294 X_1_13 + 360 X_1_14 + 469 X_2_0 + 344 X_2_1 + 280 X_2_3 + 435 X_2_4
  + 819 X_2_5 + 742 X_2_6 + 636 X_2_7 + 489 X_2_8 + 717 X_2_9 + 300 X_2_10 + 311 X_2_11 + 834 X_2_12
  + 300 X_2_13 + 159 X_2_14 + 678 X_3_0 + 528 X_3_1 + 280 X_3_2 + 298 X_3_4 + 825 X_3_5 + 919 X_3_6
  + 648 X_3_7 + 747 X_3_8 + 939 X_3_9 + 302 X_3_10 + 537 X_3_11 + 1059 X_3_12 + 296 X_3_13 + 169 X_3_14
  + 612 X_4_0 + 466 X_4_1 + 435 X_4_2 + 298 X_4_3 + 551 X_4_5 + 781 X_4_6 + 390 X_4_7 + 752 X_4_8
  + 860 X_4_9 + 185 X_4_10 + 524 X_4_11 + 974 X_4_12 + 178 X_4_13 + 280 X_4_14 + 600 X_5_0 + 566 X_5_1
  + 819 X_5_2 + 825 X_5_3 + 551 X_5_4 + 534 X_5_6 + 184 X_5_7 + 797 X_5_8 + 710 X_5_9 + 543 X_5_10
  + 657 X_5_11 + 780 X_5_12 + 547 X_5_13 + 724 X_5_14 + 281 X_6_0 + 401 X_6_1 + 742 X_6_2 + 919 X_6_3
  + 781 X_6_4 + 534 X_6_5 + 496 X_6_7 + 403 X_6_8 + 191 X_6_9 + 638 X_6_10 + 438 X_6_11 + 245 X_6_12
  + 646 X_6_13 + 755 X_6_14 + 474 X_7_0 + 407 X_7_1 + 636 X_7_2 + 648 X_7_3 + 390 X_7_4 + 184 X_7_5
  + 496 X_7_6 + 669 X_7_8 + 642 X_7_9 + 360 X_7_10 + 500 X_7_11 + 733 X_7_12 + 364 X_7_13 + 541 X_7_14
  + 197 X_8_0 + 293 X_8_1 + 489 X_8_2 + 747 X_8_3 + 752 X_8_4 + 797 X_8_5 + 403 X_8_6 + 669 X_8_7
  + 277 X_8_9 + 567 X_8_10 + 228 X_8_11 + 377 X_8_12 + 574 X_8_13 + 583 X_8_14 + 261 X_9_0 + 414 X_9_1
  + 717 X_9_2 + 939 X_9_3 + 860 X_9_4 + 710 X_9_5 + 191 X_9_6 + 642 X_9_7 + 277 X_9_8 + 693 X_9_10
  + 408 X_9_11 + 119 X_9_12 + 701 X_9_13 + 770 X_9_14 + 437 X_10_0 + 287 X_10_1 + 300 X_10_2 + 302 X_10_3
  + 185 X_10_4 + 543 X_10_5 + 638 X_10_6 + 360 X_10_7 + 567 X_10_8 + 693 X_10_9 + 339 X_10_11 + 810 X_10_12
  + 7 X_10_13 + 181 X_10_14 + 158 X_11_0 + 92 X_11_1 + 311 X_11_2 + 537 X_11_3 + 524 X_11_4 + 657 X_11_5
  + 438 X_11_6 + 500 X_11_7 + 228 X_11_8 + 408 X_11_9 + 339 X_11_10 + 527 X_11_12 + 346 X_11_13 + 368 X_11_14
  + 381 X_12_0 + 533 X_12_1 + 834 X_12_2 + 1059 X_12_3 + 974 X_12_4 + 780 X_12_5 + 245 X_12_6 + 733 X_12_7
  + 377 X_12_8 + 119 X_12_9 + 810 X_12_10 + 527 X_12_11 + 818 X_12_13 + 890 X_12_14 + 444 X_13_0 + 294 X_13_1
  + 300 X_13_2 + 296 X_13_3 + 178 X_13_4 + 547 X_13_5 + 646 X_13_6 + 364 X_13_7 + 574 X_13_8 + 701 X_13_9
  + 7 X_13_10 + 346 X_13_11 + 818 X_13_12 + 177 X_13_14 + 509 X_14_0 + 360 X_14_1 + 159 X_14_2 + 169 X_14_3
  + 280 X_14_4 + 724 X_14_5 + 755 X_14_6 + 541 X_14_7 + 583 X_14_8 + 770 X_14_9 + 181 X_14_10 + 368 X_14_11
  + 890 X_14_12 + 177 X_14_13
  <= 5
 obj6:
  + 37 X_0_1 + 558 X_0_2 + 264 X_0_3 + 525 X_0_4 + 425 X_0_5 + 476 X_0_6 + 78 X_0_7 + 373 X_0_8
  + 287 X_0_9 + 561 X_0_10 + 304 X_0_11 + 331 X_0_12 + 387 X_0_13 + 229 X_0_14 + 37 X_1_0 + 530 X_1_2
  + 301 X_1_3 + 529 X_1_4 + 401 X_1_5 + 510 X_1_6 + 95 X_1_7 + 336 X_1_8 + 251 X_1_9 + 573 X_1_10
  + 266 X_1_11 + 334 X_1_12 + 416 X_1_13 + 247 X_1_14 + 558 X_2_0 + 530 X_2_1 + 760 X_2_3 + 504 X_2_4
  + 150 X_2_5 + 867 X_2_6 + 623 X_2_7 + 346 X_2_8 + 317 X_2_9 + 623 X_2_10 + 362 X_2_11 + 446 X_2_12
  + 747 X_2_13 + 553 X_2_14 + 264 X_3_0 + 301 X_3_1 + 760 X_3_2 + 529 X_3_4 + 612 X_3_5 + 240 X_3_6
  + 268 X_3_7 + 634 X_3_8 + 539 X_3_9 + 505 X_3_10 + 565 X_3_11 + 380 X_3_12 + 200 X_3_13 + 229 X_3_14
  + 525 X_4_0 + 529 X_4_1 + 504 X_4_2 + 529 X_4_3 + 390 X_4_5 + 488 X_4_6 + 600 X_4_7 + 659 X_4_8
  + 549 X_4_9 + 122 X_4_10 + 615 X_4_11 + 195 X_4_12 + 389 X_4_13 + 323 X_4_14 + 425 X_5_0 + 401 X_5_1
  + 150 X_5_2 + 612 X_5_3 + 390 X_5_4 + 717 X_5_6 + 496 X_5_7 + 314 X_5_8 + 237 X_5_9 + 502 X_5_10
  + 300 X_5_11 + 300 X_5_12 + 597 X_5_13 + 403 X_5_14 + 476 X_6_0 + 510 X_6_1 + 867 X_6_2 + 240 X_6_3
  + 488 X_6_4 + 717 X_6_5 + 500 X_6_7 + 823 X_6_8 + 715 X_6_9 + 411 X_6_10 + 755 X_6_11 + 425 X_6_12
  + 119 X_6_13 + 323 X_6_14 + 78 X_7_0 + 95 X_7_1 + 623 X_7_2 + 268 X_7_3 + 600 X_7_4 + 496 X_7_5
  + 500 X_7_6 + 402 X_7_8 + 333 X_7_9 + 630 X_7_10 + 335 X_7_11 + 407 X_7_12 + 424 X_7_13 + 293 X_7_14
  + 373 X_8_0 + 336 X_8_1 + 346 X_8_2 + 634 X_8_3 + 659 X_8_4 + 314 X_8_5 + 823 X_8_6 + 402 X_8_7
  + 115 X_8_9 + 751 X_8_10 + 69 X_8_11 + 500 X_8_12 + 715 X_8_13 + 512 X_8_14 + 287 X_9_0 + 251 X_9_1
  + 317 X_9_2 + 539 X_9_3 + 549 X_9_4 + 237 X_9_5 + 715 X_9_6 + 333 X_9_7 + 115 X_9_8 + 637 X_9_10
  + 68 X_9_11 + 385 X_9_12 + 604 X_9_13 + 399 X_9_14 + 561 X_10_0 + 573 X_10_1 + 623 X_10_2 + 505 X_10_3
  + 122 X_10_4 + 502 X_10_5 + 411 X_10_6 + 630 X_10_7 + 751 X_10_8 + 637 X_10_9 + 701 X_10_11 + 255 X_10_12
  + 332 X_10_13 + 337 X_10_14 + 304 X_11_0 + 266 X_11_1 + 362 X_11_2 + 565 X_11_3 + 615 X_11_4 + 300 X_11_5
  + 755 X_11_6 + 335 X_11_7 + 69 X_11_8 + 68 X_11_9 + 701 X_11_10 + 448 X_11_12 + 649 X_11_13 + 447 X_11_14
  + 331 X_12_0 + 334 X_12_1 + 446 X_12_2 + 380 X_12_3 + 195 X_12_4 + 300 X_12_5 + 425 X_12_6 + 407 X_12_7
  + 500 X_12_8 + 385 X_12_9 + 255 X_12_10 + 448 X_12_11 + 306 X_12_13 + 153 X_12_14 + 387 X_13_0 + 416 X_13_1
  + 747 X_13_2 + 200 X_13_3 + 389 X_13_4 + 597 X_13_5 + 119 X_13_6 + 424 X_13_7 + 715 X_13_8 + 604 X_13_9
  + 332 X_13_10 + 649 X_13_11 + 306 X_13_12 + 207 X_13_14 + 229 X_14_0 + 247 X_14_1 + 553 X_14_2 + 229 X_14_3
  + 323 X_14_4 + 403 X_14_5 + 323 X_14_6 + 293 X_14_7 + 512 X_14_8 + 399 X_14_9 + 337 X_14_10 + 447 X_14_11
  + 153 X_14_12 + 207 X_14_13
  <= 6
 obj7:
  + 436 X_0_1 + 651 X_0_2 + 472 X_0_3 + 487 X_0_4 + 633 X_0_5 + 892 X_0_6 + 389 X_0_7 + 814 X_0_8
  + 431 X_0_9 + 951 X_0_10 + 488 X_0_11 + 888 X_0_12 + 478 X_0_13 + 828 X_0_14 + 436 X_1_0 + 257 X_1_2
  + 655 X_1_3 + 418 X_1_4 + 414 X_1_5 + 456 X_1_6 + 595 X_1_7 + 377 X_1_8 + 259 X_1_9 + 523 X_1_10
  + 385 X_1_11 + 478 X_1_12 + 526 X_1_13 + 393 X_1_14 + 651 X_2_0 + 257 X_2_1 + 711 X_2_3 + 402 X_2_4
  + 280 X_2_5 + 336 X_2_6 + 676 X_2_7 + 267 X_2_8 + 282 X_2_9 + 314 X_2_10 + 621 X_2_11 + 237 X_2_12
  + 777 X_2_13 + 300 X_2_14 + 472 X_3_0 + 655 X_3_1 + 711 X_3_2 + 317 X_3_4 + 502 X_3_5 + 1041 X_3_6
  + 83 X_3_7 + 965 X_3_8 + 435 X_3_9 + 1014 X_3_10 + 905 X_3_11 + 910 X_3_12 + 939 X_3_13 + 993 X_3_14
  + 487 X_4_0 + 418 X_4_1 + 402 X_4_2 + 317 X_4_3 + 192 X_4_5 + 738 X_4_6 + 303 X_4_7 + 665 X_4_8
  + 159 X_4_9 + 698 X_4_10 + 760 X_4_11 + 592 X_4_12 + 850 X_4_13 + 696 X_4_14 + 633 X_5_0 + 414 X_5_1
  + 280 X_5_2 + 502 X_5_3 + 192 X_5_4 + 607 X_5_6 + 495 X_5_7 + 543 X_5_8 + 209 X_5_9 + 534 X_5_10
  + 796 X_5_11 + 420 X_5_12 + 918 X_5_13 + 578 X_5_14 + 892 X_6_0 + 456 X_6_1 + 336 X_6_2 + 1041 X_6_3
  + 738 X_6_4 + 607 X_6_5 + 1000 X_6_7 + 79 X_6_8 + 606 X_6_9 + 181 X_6_10 + 660 X_6_11 + 264 X_6_12
  + 838 X_6_13 + 67 X_6_14 + 389 X_7_0 + 595 X_7_1 + 676 X_7_2 + 83 X_7_3 + 303 X_7_4 + 495 X_7_5
  + 1000 X_7_6 + 922 X_7_8 + 394 X_7_9 + 986 X_7_10 + 827 X_7_11 + 887 X_7_12 + 857 X_7_13 + 949 X_7_14
  + 814 X_8_0 + 377 X_8_1 + 267 X_8_2 + 965 X_8_3 + 665 X_8_4 + 543 X_8_5 + 79 X_8_6 + 922 X_8_7
  + 530 X_8_9 + 202 X_8_10 + 604 X_8_11 + 248 X_8_12 + 781 X_8_13 + 36 X_8_14 + 431 X_9_0 + 259 X_9_1
  + 282 X_9_2 + 435 X_9_3 + 159 X_9_4 + 209 X_9_5 + 606 X_9_6 + 394 X_9_7 + 530 X_9_8 + 596 X_9_10
  + 614 X_9_11 + 505 X_9_12 + 721 X_9_13 + 558 X_9_14 + 951 X_10_0 + 523 X_10_1 + 314 X_10_2 + 1014 X_10_3
  + 698 X_10_4 + 534 X_10_5 + 181 X_10_6 + 986 X_10_7 + 202 X_10_8 + 596 X_10_9 + 800 X_10_11 + 119 X_10_12
  + 976 X_10_13 + 222 X_10_14 + 488 X_11_0 + 385 X_11_1 + 621 X_11_2 + 905 X_11_3 + 760 X_11_4 + 796 X_11_5
  + 660 X_11_6 + 827 X_11_7 + 604 X_11_8 + 614 X_11_9 + 800 X_11_10 + 801 X_11_12 + 178 X_11_13 + 596 X_11_14
  + 888 X_12_0 + 478 X_12_1 + 237 X_12_2 + 910 X_12_3 + 592 X_12_4 + 420 X_12_5 + 264 X_12_6 + 887 X_12_7
  + 248 X_12_8 + 505 X_12_9 + 119 X_12_10 + 801 X_12_11 + 970 X_12_13 + 280 X_12_14 + 478 X_13_0 + 526 X_13_1
  + 777 X_13_2 + 939 X_13_3 + 850 X_13_4 + 918 X_13_5 + 838 X_13_6 + 857 X_13_7 + 781 X_13_8 + 721 X_13_9
  + 976 X_13_10 + 178 X_13_11 + 970 X_13_12 + 774 X_13_14 + 828 X_14_0 + 393 X_14_1 + 300 X_14_2 + 993 X_14_3
  + 696 X_14_4 + 578 X_14_5 + 67 X_14_6 + 949 X_14_7 + 36 X_14_8 + 558 X_14_9 + 222 X_14_10 + 596 X_14_11
  + 280 X_14_12 + 774 X_14_13
  <= 7
Bounds
 1 <= U1 <= 14
 1 <= U2 <= 14
 1 <= U3 <= 14
 1 <= U4 <= 14
 1 <= U5 <= 14
 1 <= U6 <= 14
 1 <= U7 <= 14
 1 <= U8 <= 14
 1 <= U9 <= 14
 1 <= U10 <= 14
 1 <= U11 <= 14
 1 <= U12 <= 14
 1 <= U13 <= 14
 1 <= U14 <= 14
Binary
 X_0_1
 X_0_2
 X_0_3
 X_0_4
 X_0_5
 X_0_6
 X_0_7
 X_0_8
 X_0_9
 X_0_10
 X_0_11
 X_0_12
 X_0_13
 X_0_14
 X_1_0
 X_1_2
 X_1_3
 X_1_4
 X_1_5
 X_1_6
 X_1_7
 X_1_8
 X_1_9
 X_1_10
 X_1_11
 X_1_12
 X_1_13
 X_1_14
 X_2_0
 X_2_1
 X_2_3
 X_2_4
 X_2_5
 X_2_6
 X_2_7
 X_2_8
 X_2_9
 X_2_10
 X_2_11
 X_2_12
 X_2_13
 X_2_14
 X_3_0
 X_3_1
 X_3_2
 X_3_4
 X_3_5
 X_3_6
 X_3_7
 X_3_8
 X_3_9
 X_3_10
 X_3_11
 X_3_12
 X_3_13
 X_3_14
 X_4_0
 X_4_1
 X_4_2
 X_4_3
 X_4_5
 X_4_6
 X_4_7
 X_4_8
 X_4_9
 X_4_10
 X_4_11
 X_4_12
 X_4_13
 X_4_14
 X_5_0
 X_5_1
 X_5_2
 X_5_3
 X_5_4
 X_5_6
 X_5_7
 X_5_8
 X_5_9
 X_5_10
 X_5_11
 X_5_12
 X_5_13
 X_5_14
 X_6_0
 X_6_1
 X_6_2
 X_6_3
 X_6_4
 X_6_5
 X_6_7
 X_6_8
 X_6_9
 X_6_10
 X_6_11
 X_6_12
 X_6_13
 X_6_14
 X_7_0
 X_7_1
 X_7_2
 X_7_3
 X_7_4
 X_7_5
 X_7_6
 X_7_8
 X_7_9
 X_7_10
 X_7_11
 X_7_12
 X_7_13
 X_7_14
 X_8_0
 X_8_1
 X_8_2
 X_8_3
 X_8_4
 X_8_5
 X_8_6
 X_8_7
 X_8_9
 X_8_10
 X_8_11
 X_8_12
 X_8_13
 X_8_14
 X_9_0
 X_9_1
 X_9_2
 X_9_3
 X_9_4
 X_9_5
 X_9_6
 X_9_7
 X_9_8
 X_9_10
 X_9_11
 X_9_12
 X_9_13
 X_9_14
 X_10_0
 X_10_1
 X_10_2
 X_10_3
 X_10_4
 X_10_5
 X_10_6
 X_10_7
 X_10_8
 X_10_9
 X_10_11
 X_10_12
 X_10_13
 X_10_14
 X_11_0
 X_11_1
 X_11_2
 X_11_3
 X_11_4
 X_11_5
 X_11_6
 X_11_7
 X_11_8
 X_11_9
 X_11_10
 X_11_12
 X_11_13
 X_11_14
 X_12_0
 X_12_1
 X_12_2
 X_12_3
 X_12_4
 X_12_5
 X_12_6
 X_12_7
 X_12_8
 X_12_9
 X_12_10
 X_12_11
 X_12_13
 X_12_14
 X_13_0
 X_13_1
 X_13_2
 X_13_3
 X_13_4
 X_13_5
 X_13_6
 X_13_7
 X_13_8
 X_13_9
 X_13_10
 X_13_11
 X_13_12
 X_13_14
 X_14_0
 X_14_1
 X_14_2
 X_14_3
 X_14_4
 X_14_5
 X_14_6
 X_14_7
 X_14_8
 X_14_9
 X_14_10
 X_14_11
 X_14_12
 X_14_13
End
